30
1 0 2
3 1 4
3 2 2
4 1 2
5 1 2
5 2 1
5 3 5
5 4 5
6 0 3
6 1 1
6 2 5
7 0 2
7 1 5
7 2 3
7 5 3
8 1 3
8 3 5
8 5 1
8 6 4
8 7 4
9 0 2
9 1 2
9 3 1
9 4 2
9 6 2
9 8 2
10 1 1
10 2 2
10 5 2
10 6 1
10 7 4
11 0 5
11 1 2
11 2 3
11 3 4
11 4 4
11 5 2
11 6 1
11 9 5
12 0 3
12 3 3
12 6 5
12 7 2
12 8 4
12 11 1
13 0 3
13 7 1
13 8 5
14 0 3
14 2 1
14 6 3
14 7 2
14 10 3
14 12 1
15 0 4
15 1 5
15 2 1
15 6 2
15 7 2
15 9 1
15 11 4
15 13 2
15 14 3
16 0 5
16 1 3
16 3 2
16 5 5
16 7 4
16 10 5
16 13 2
17 3 3
17 5 3
17 8 2
17 10 1
17 11 1
17 14 5
17 15 5
18 6 4
18 7 3
18 8 3
18 9 4
18 12 2
18 13 1
18 16 4
19 1 1
19 2 4
19 3 1
19 5 3
19 7 5
19 10 2
19 13 3
19 16 2
20 0 1
20 1 5
20 2 5
20 4 2
20 5 5
20 7 1
20 10 5
20 11 2
20 15 1
20 17 3
20 19 4
21 5 2
21 9 1
21 10 2
21 11 5
21 14 4
21 18 4
22 0 5
22 2 1
22 3 2
22 7 1
22 10 5
22 14 4
22 17 3
22 18 5
23 0 2
23 1 1
23 2 5
23 4 1
23 7 1
23 8 5
23 9 2
23 10 2
23 14 2
23 15 4
23 17 2
23 18 1
23 21 5
23 22 1
24 0 2
24 2 1
24 6 3
24 8 5
24 10 5
24 12 4
24 16 2
24 17 1
24 21 2
24 22 5
25 0 2
25 1 3
25 2 5
25 3 3
25 10 2
25 11 5
25 13 5
25 17 5
25 18 2
25 20 1
25 22 3
25 23 4
25 24 2
26 7 2
26 8 2
26 12 1
26 14 5
26 17 2
26 20 2
26 21 4
26 22 2
26 25 2
27 0 5
27 4 1
27 6 5
27 8 4
27 9 3
27 10 1
27 12 1
27 16 5
27 19 2
27 21 2
27 22 3
27 23 1
27 25 1
27 26 5
28 0 1
28 4 3
28 6 3
28 9 5
28 10 4
28 11 2
28 15 2
28 18 1
28 19 4
28 26 4
29 2 3
29 4 3
29 5 3
29 6 5
29 7 5
29 9 4
29 14 4
29 15 2
29 21 3
29 22 5
29 23 5
29 24 4
29 26 4
29 27 2
